(set-info :status unknown)
(declare-fun C2 () (_ BitVec 11))
(declare-fun %X () (_ BitVec 11))
(declare-fun C1 () (_ BitVec 11))
(assert
 (let ((?x11042 (ite (and (distinct %X C2) true) (_ bv1 1) (_ bv0 1))))
 (and (bvslt C1 C2) (and (distinct (bvor (ite (bvslt %X C1) (_ bv1 1) (_ bv0 1)) ?x11042) ?x11042) true))))
(check-sat)
